
Gurobi 9.0.2 (win64) logging started Sat Oct 10 17:05:39 2020

Changed value of parameter logfile to result\v6.2-20201010T1221\scenario_2030_eff065_cab4000.log
   Prev:   Default: 
Gurobi Optimizer version 9.0.2 build v9.0.2rc0 (win64)
Optimize a model with 1384150 rows, 884815 columns and 3912197 nonzeros
Model fingerprint: 0x8b0d5298
Coefficient statistics:
  Matrix range     [1e-07, 4e+05]
  Objective range  [1e+00, 1e+00]
  Bounds range     [0e+00, 0e+00]
  RHS range        [2e-05, 3e+08]
Warning: Model contains large matrix coefficient range
         Consider reformulating model or setting NumericFocus parameter
         to avoid numerical issues.

Concurrent LP optimizer: primal simplex, dual simplex, and barrier
Showing barrier log only...

Presolve removed 1129315 rows and 656241 columns
Presolve time: 5.55s
Presolved: 254835 rows, 342440 columns, 891938 nonzeros

Ordering time: 0.24s

Barrier statistics:
 Dense cols : 9
 AA' NZ     : 8.194e+05
 Factor NZ  : 4.461e+06 (roughly 300 MBytes of memory)
 Factor Ops : 1.125e+08 (less than 1 second per iteration)
 Threads    : 30

                  Objective                Residual
Iter       Primal          Dual         Primal    Dual     Compl     Time
   0  -2.05098485e+16 -1.58515907e+15  6.15e+06 1.56e+04  2.46e+12     7s
   1  -3.14414562e+15 -1.58947039e+15  9.35e+05 4.73e+06  8.13e+11     7s
   2  -1.32316358e+15 -1.27422478e+15  3.91e+05 7.35e+05  2.11e+11     8s
   3  -4.37198621e+14 -1.03636714e+15  1.27e+05 1.78e+05  6.37e+10     8s
   4  -9.89990060e+13 -6.29067126e+14  2.73e+04 4.35e+04  1.49e+10     9s
   5  -3.60262705e+13 -4.22436248e+14  1.05e+04 2.12e+04  6.56e+09     9s
   6  -1.63879236e+13 -3.52366110e+14  5.05e+03 1.50e+04  4.00e+09     9s
   7  -8.29144565e+12 -1.90832455e+14  2.73e+03 3.72e+03  1.47e+09    10s
   8  -2.19204537e+12 -9.92872445e+13  9.11e+02 6.06e+02  4.01e+08    10s
   9   7.36395715e+11 -2.42118161e+13  9.55e+00 1.94e+01  3.96e+07    11s
  10   3.55255488e+11 -1.90703805e+12  1.95e-01 1.27e+00  3.40e+06    11s
  11   1.64546646e+11 -5.57652502e+11  6.45e-02 2.12e-01  1.06e+06    12s
  12   7.33563518e+10 -2.36926042e+11  2.47e-02 1.12e-08  4.52e+05    12s
  13   6.61234354e+10 -1.71811101e+11  2.19e-02 1.12e-08  3.46e+05    12s
  14   3.52379295e+10 -1.09251237e+11  1.04e-02 1.12e-08  2.10e+05    13s
  15   2.01374746e+10 -6.21216565e+10  5.11e-03 1.12e-08  1.19e+05    13s
  16   1.42973123e+10 -2.62153136e+10  1.78e-03 1.12e-08  5.86e+04    14s
  17   1.02305374e+10 -5.42428318e+09  6.95e-04 9.31e-09  2.26e+04    14s
  18   9.17020278e+09  4.15148373e+09  4.02e-04 7.45e-09  7.25e+03    14s
  19   8.62598550e+09  6.08105820e+09  2.71e-04 4.66e-09  3.68e+03    15s
  20   8.32162317e+09  6.20475590e+09  2.02e-04 3.73e-09  3.06e+03    15s
  21   8.20145335e+09  6.29979479e+09  1.74e-04 3.73e-09  2.75e+03    16s
  22   8.02409562e+09  6.65805094e+09  1.34e-04 2.79e-09  1.97e+03    16s
  23   7.79410662e+09  6.84167635e+09  8.13e-05 2.79e-09  1.38e+03    17s
  24   7.58783569e+09  7.12092885e+09  3.52e-05 1.86e-09  6.74e+02    17s
  25   7.51508634e+09  7.23334901e+09  2.04e-05 1.86e-09  4.07e+02    18s
  26   7.50686911e+09  7.27598692e+09  1.89e-05 1.86e-09  3.33e+02    18s
  27   7.46255198e+09  7.29652257e+09  1.00e-05 1.86e-09  2.40e+02    18s
  28   7.44374661e+09  7.31989010e+09  6.47e-06 1.86e-09  1.79e+02    19s
  29   7.42910937e+09  7.34457704e+09  3.63e-06 1.86e-09  1.22e+02    19s
  30   7.42001468e+09  7.35718262e+09  1.95e-06 1.86e-09  9.07e+01    20s
  31   7.41497486e+09  7.37522608e+09  1.11e-06 1.86e-09  5.74e+01    20s
  32   7.41158911e+09  7.38325359e+09  5.89e-07 1.86e-09  4.09e+01    21s
  33   7.41021983e+09  7.39067023e+09  3.78e-07 1.86e-09  2.82e+01    21s
  34   7.40927890e+09  7.39504063e+09  2.39e-07 1.86e-09  2.06e+01    21s
  35   7.40831216e+09  7.40047677e+09  2.35e-07 1.86e-09  1.13e+01    22s
  36   7.40802198e+09  7.40330457e+09  2.00e-07 1.86e-09  6.81e+00    22s
  37   7.40771939e+09  7.40526411e+09  2.75e-07 1.86e-09  3.54e+00    22s
  38   7.40752805e+09  7.40676953e+09  8.76e-08 1.86e-09  1.10e+00    23s
  39   7.40743348e+09  7.40709862e+09  1.82e-07 1.86e-09  4.83e-01    23s
  40   7.40741596e+09  7.40739399e+09  6.39e-08 1.12e-08  3.17e-02    24s
  41   7.40740509e+09  7.40740429e+09  3.73e-09 2.79e-09  1.16e-03    24s
  42   7.40740442e+09  7.40740440e+09  2.96e-05 1.51e-08  2.54e-05    25s
  43   7.40740442e+09  7.40740440e+09  1.46e-03 1.83e-08  2.54e-05    25s

Barrier solved model in 43 iterations and 25.11 seconds
Optimal objective 7.40740442e+09

Crossover log...

   75873 DPushes remaining with DInf 0.0000000e+00                25s
    4971 DPushes remaining with DInf 0.0000000e+00                30s
     428 DPushes remaining with DInf 0.0000000e+00                35s
       0 DPushes remaining with DInf 0.0000000e+00                37s
Warning: Markowitz tolerance tightened to 0.5

  110762 PPushes remaining with PInf 1.6378412e-03                37s
   57009 PPushes remaining with PInf 2.6884058e-01                62s
   27889 PPushes remaining with PInf 7.1360709e-01               113s
   10149 PPushes remaining with PInf 7.1501189e-01               116s
       0 PPushes remaining with PInf 0.0000000e+00               137s

  Push phase complete: Pinf 0.0000000e+00, Dinf 7.4647608e+04    137s

Iteration    Objective       Primal Inf.    Dual Inf.      Time
  137447    7.4074044e+09   0.000000e+00   7.464761e+04    137s
  137763    7.4074044e+09   0.000000e+00   0.000000e+00    141s

Solved with barrier
Solved in 137763 iterations and 141.29 seconds
Optimal objective  7.407404401e+09
Warning: unscaled primal violation = 0.000874987 and residual = 0.000874987
